results/x-long/X-n162-k11.vrp_seed-2.out
14153	1269
