results/x-long/X-n162-k11.vrp_seed-2.vrp.sol
Route #1: 54 76 41 61 46 69 65 70 113 63 104 83 98 47 25
Route #2: 59 50 45 150 90 86 53 80
Route #3: 52 79 20 67 62 114 95 129 96 88 106 100 31 140 154 111
Route #4: 74 108 137 39 146 151 131 57 32 16 5 120 158 81 91 136
Route #5: 145 68 58 130 99 35 36 94 66 56 123 43 142 102 116
Route #6: 155 92 125 93 132 101 4 87 112 157 40 30 118 103 115 156
Route #7: 141 135 147 159 82 2 109 148 134 124 128 110 153 160 85 121
Route #8: 78 22 34 7 44 75 33 3 19 18 64 12 51 42 8
Route #9: 72 119 144 143 84 122 107 133 138 126 139 105 10 29 15
Route #10: 127 17 149 89 14 1 55 60 21 9 27 117 97 77 161
Route #11: 152 23 24 13 71 37 6 49 73 38 11 48 26 28
Cost 14153.000000